999915151527399751524618996154243799614254379952452437995242461899524251999424243799344251999424251999425151999154251999155151999155151999242451999242428169981515273998151519992424273997251519991524273994515519991245273997224519991254273994524519992424273998124527399815242739981245273998152427399821542739982154281699821542816998242427399824242816998242452739982424281699821542816998242428169982424281699824242739982424281699824242739982424281699821542739982424281699824242739982154281699551542816998215427399824242816998242518169991425427399824254273998242452739982425427399824524273998245242739985152427399851524273998515245199961452427399851551519995515242739994425151999641524273999415245199955152427399854251519995515425199955154243799921542519998125424379992424251999821542437996524515199955151551999551542437999215515199981524243799921542437996515424379992154251999542452437996425424379991254243799912452437999151516189991245243799915152437999151516428999142543428998245243428999145243428999424243428999424251642899942424615289994242434528999424251618